(set-info :smt-lib-version 2.6)
(set-info :category "crafted")
(set-logic QF_FF)
(define-sort FF0 () (_ FiniteField 52435875175126190479447740508185965837690552500527637822603658699938581184513))
(declare-fun _80_alt () FF0)
(declare-fun _79_alt () FF0)
(declare-fun _47_alt () FF0)
(declare-fun _78_alt () FF0)
(declare-fun _55_alt () FF0)
(declare-fun _76_alt () FF0)
(declare-fun _75_alt () FF0)
(declare-fun _64_alt () FF0)
(declare-fun _62_alt () FF0)
(declare-fun _13_alt () FF0)
(declare-fun _70_alt () FF0)
(declare-fun _69_alt () FF0)
(declare-fun _31_alt () FF0)
(declare-fun _48_alt () FF0)
(declare-fun _2_alt () FF0)
(declare-fun _25_alt () FF0)
(declare-fun _60_alt () FF0)
(declare-fun _59_alt () FF0)
(declare-fun _20_alt () FF0)
(declare-fun _28_alt () FF0)
(declare-fun _18_alt () FF0)
(declare-fun _29_alt () FF0)
(declare-fun _54_alt () FF0)
(declare-fun _14_alt () FF0)
(declare-fun _53_alt () FF0)
(declare-fun _1_alt () FF0)
(declare-fun _52_alt () FF0)
(declare-fun _50_alt () FF0)
(declare-fun _4_alt () FF0)
(declare-fun _41_alt () FF0)
(declare-fun _40_alt () FF0)
(declare-fun _49_alt () FF0)
(declare-fun _27_alt () FF0)
(declare-fun _10_alt () FF0)
(declare-fun _9_alt () FF0)
(declare-fun _46_alt () FF0)
(declare-fun _35_alt () FF0)
(declare-fun _45_alt () FF0)
(declare-fun _44_alt () FF0)
(declare-fun _5_alt () FF0)
(declare-fun _34_alt () FF0)
(declare-fun _26_alt () FF0)
(declare-fun _33_alt () FF0)
(declare-fun _0_alt () FF0)
(declare-fun _32_alt () FF0)
(declare-fun _16_alt () FF0)
(declare-fun _3_alt () FF0)
(declare-fun _24_alt () FF0)
(declare-fun _23_alt () FF0)
(declare-fun _22_alt () FF0)
(declare-fun _21_alt () FF0)
(declare-fun _80 () FF0)
(declare-fun _79 () FF0)
(declare-fun _47 () FF0)
(declare-fun _78 () FF0)
(declare-fun _55 () FF0)
(declare-fun _76 () FF0)
(declare-fun _75 () FF0)
(declare-fun _64 () FF0)
(declare-fun _62 () FF0)
(declare-fun _13 () FF0)
(declare-fun _70 () FF0)
(declare-fun _69 () FF0)
(declare-fun _31 () FF0)
(declare-fun _48 () FF0)
(declare-fun _2 () FF0)
(declare-fun _25 () FF0)
(declare-fun _60 () FF0)
(declare-fun _59 () FF0)
(declare-fun _20 () FF0)
(declare-fun _28 () FF0)
(declare-fun _18 () FF0)
(declare-fun _29 () FF0)
(declare-fun _54 () FF0)
(declare-fun _14 () FF0)
(declare-fun _53 () FF0)
(declare-fun _1 () FF0)
(declare-fun _52 () FF0)
(declare-fun _50 () FF0)
(declare-fun _4 () FF0)
(declare-fun _41 () FF0)
(declare-fun _40 () FF0)
(declare-fun _49 () FF0)
(declare-fun _27 () FF0)
(declare-fun _10 () FF0)
(declare-fun _9 () FF0)
(declare-fun _46 () FF0)
(declare-fun _35 () FF0)
(declare-fun _45 () FF0)
(declare-fun _44 () FF0)
(declare-fun _5 () FF0)
(declare-fun _34 () FF0)
(declare-fun _26 () FF0)
(declare-fun _33 () FF0)
(declare-fun _0 () FF0)
(declare-fun _32 () FF0)
(declare-fun _16 () FF0)
(declare-fun _3 () FF0)
(declare-fun _24 () FF0)
(declare-fun _23 () FF0)
(declare-fun _22 () FF0)
(declare-fun _21 () FF0)
(declare-fun out_alt () FF0)
(declare-fun out () FF0)
(assert 
  (let ((let0 (as ff52435875175126190479447740508185965837690552500527637822603658699938581184512 FF0)))
  (let ((let1 _80_alt))
  (let ((let2 (ff.mul let1 let0)))
  (let ((let3 _79_alt))
  (let ((let4 _47_alt))
  (let ((let5 (ff.add let4 let3 let2)))
  (let ((let6 (ff.mul let3 let4)))
  (let ((let7 (= let6 let5)))
  (let ((let8 (ff.mul let3 let0)))
  (let ((let9 _78_alt))
  (let ((let10 _55_alt))
  (let ((let11 (ff.add let10 let9 let8)))
  (let ((let12 (ff.mul let9 let10)))
  (let ((let13 (= let12 let11)))
  (let ((let14 (ff.mul let9 let0)))
  (let ((let15 _76_alt))
  (let ((let16 _75_alt))
  (let ((let17 _64_alt))
  (let ((let18 (ff.add let17 let16 let15 let14)))
  (let ((let19 (ff.add let16 let15)))
  (let ((let20 (ff.mul let19 let17)))
  (let ((let21 (= let20 let18)))
  (let ((let22 (as ff1 FF0)))
  (let ((let23 _62_alt))
  (let ((let24 (ff.mul let23 let0)))
  (let ((let25 (ff.add let24 let22)))
  (let ((let26 _13_alt))
  (let ((let27 (ff.mul let26 let0)))
  (let ((let28 (ff.add let27 let22)))
  (let ((let29 (ff.mul let28 let25)))
  (let ((let30 (= let29 let15)))
  (let ((let31 _70_alt))
  (let ((let32 _69_alt))
  (let ((let33 (ff.add let32 let31)))
  (let ((let34 (ff.mul let26 let33)))
  (let ((let35 (= let34 let16)))
  (let ((let36 _31_alt))
  (let ((let37 _48_alt))
  (let ((let38 (ff.mul let37 let0)))
  (let ((let39 (ff.add let38 let22)))
  (let ((let40 (ff.mul let39 let36)))
  (let ((let41 (= let40 let31)))
  (let ((let42 _2_alt))
  (let ((let43 (ff.mul let42 let0)))
  (let ((let44 (ff.add let43 let22)))
  (let ((let45 (ff.mul let37 let44)))
  (let ((let46 (= let45 let32)))
  (let ((let47 (ff.mul let17 let0)))
  (let ((let48 _25_alt))
  (let ((let49 (ff.add let48 let24 let47 let22)))
  (let ((let50 (ff.mul let48 let25)))
  (let ((let51 (= let50 let49)))
  (let ((let52 _60_alt))
  (let ((let53 (ff.mul let52 let0)))
  (let ((let54 _59_alt))
  (let ((let55 (ff.mul let54 let0)))
  (let ((let56 _20_alt))
  (let ((let57 (ff.mul let56 let0)))
  (let ((let58 (ff.add let57 let55 let53 let22)))
  (let ((let59 (ff.mul let58 let58)))
  (let ((let60 (= let59 let23)))
  (let ((let61 _28_alt))
  (let ((let62 _18_alt))
  (let ((let63 (ff.mul let62 let61)))
  (let ((let64 (= let63 let52)))
  (let ((let65 _29_alt))
  (let ((let66 (ff.mul let62 let0)))
  (let ((let67 (ff.add let66 let22)))
  (let ((let68 (ff.mul let67 let65)))
  (let ((let69 (= let68 let54)))
  (let ((let70 (ff.mul let10 let0)))
  (let ((let71 _54_alt))
  (let ((let72 _14_alt))
  (let ((let73 (ff.mul let72 let0)))
  (let ((let74 (ff.add let73 let71 let70 let22)))
  (let ((let75 (ff.add let73 let22)))
  (let ((let76 (ff.mul let71 let75)))
  (let ((let77 (= let76 let74)))
  (let ((let78 (ff.mul let71 let0)))
  (let ((let79 _53_alt))
  (let ((let80 _1_alt))
  (let ((let81 (ff.add let80 let79 let78)))
  (let ((let82 (ff.mul let79 let80)))
  (let ((let83 (= let82 let81)))
  (let ((let84 (ff.mul let79 let0)))
  (let ((let85 _52_alt))
  (let ((let86 (ff.add let37 let85 let84)))
  (let ((let87 (ff.mul let85 let37)))
  (let ((let88 (= let87 let86)))
  (let ((let89 (ff.mul let85 let0)))
  (let ((let90 _50_alt))
  (let ((let91 (ff.mul let90 let0)))
  (let ((let92 _4_alt))
  (let ((let93 (ff.add let92 let91 let89 let22)))
  (let ((let94 (ff.add let91 let22)))
  (let ((let95 (ff.mul let94 let92)))
  (let ((let96 (= let95 let93)))
  (let ((let97 _41_alt))
  (let ((let98 _40_alt))
  (let ((let99 (ff.add let98 let97)))
  (let ((let100 _49_alt))
  (let ((let101 (ff.mul let100 let99)))
  (let ((let102 (= let101 let90)))
  (let ((let103 _27_alt))
  (let ((let104 (ff.mul let56 let103)))
  (let ((let105 (= let104 let100)))
  (let ((let106 (as ff2 FF0)))
  (let ((let107 (ff.mul let65 let0)))
  (let ((let108 _10_alt))
  (let ((let109 (ff.mul let108 let0)))
  (let ((let110 _9_alt))
  (let ((let111 (ff.mul let110 let0)))
  (let ((let112 (ff.add let111 let109 let107 let38 let106)))
  (let ((let113 (ff.add let107 let22)))
  (let ((let114 (ff.add let111 let109 let22)))
  (let ((let115 (ff.mul let114 let113)))
  (let ((let116 (= let115 let112)))
  (let ((let117 _46_alt))
  (let ((let118 _35_alt))
  (let ((let119 (ff.mul let118 let117)))
  (let ((let120 (= let119 let4)))
  (let ((let121 _45_alt))
  (let ((let122 (ff.mul let121 let113)))
  (let ((let123 (= let122 let117)))
  (let ((let124 _44_alt))
  (let ((let125 (ff.mul let124 let99)))
  (let ((let126 (= let125 let121)))
  (let ((let127 _5_alt))
  (let ((let128 (ff.mul let127 let0)))
  (let ((let129 (ff.add let128 let22)))
  (let ((let130 (ff.mul let26 let129)))
  (let ((let131 (= let130 let124)))
  (let ((let132 (ff.mul let56 let118)))
  (let ((let133 (= let132 let97)))
  (let ((let134 (ff.add let57 let22)))
  (let ((let135 (ff.mul let134 let75)))
  (let ((let136 (= let135 let98)))
  (let ((let137 (ff.mul let118 let0)))
  (let ((let138 _34_alt))
  (let ((let139 _26_alt))
  (let ((let140 (ff.add let139 let138 let137)))
  (let ((let141 (ff.mul let138 let139)))
  (let ((let142 (= let141 let140)))
  (let ((let143 (ff.mul let138 let0)))
  (let ((let144 _33_alt))
  (let ((let145 _0_alt))
  (let ((let146 (ff.add let145 let144 let143)))
  (let ((let147 (ff.mul let144 let145)))
  (let ((let148 (= let147 let146)))
  (let ((let149 (ff.mul let144 let0)))
  (let ((let150 _32_alt))
  (let ((let151 _16_alt))
  (let ((let152 (ff.mul let151 let0)))
  (let ((let153 (ff.add let152 let150 let149 let22)))
  (let ((let154 (ff.add let152 let22)))
  (let ((let155 (ff.mul let150 let154)))
  (let ((let156 (= let155 let153)))
  (let ((let157 (ff.mul let150 let0)))
  (let ((let158 (ff.add let61 let36 let157)))
  (let ((let159 (ff.mul let36 let61)))
  (let ((let160 (= let159 let158)))
  (let ((let161 (ff.mul let36 let0)))
  (let ((let162 _3_alt))
  (let ((let163 (ff.add let162 let92 let161)))
  (let ((let164 (ff.mul let162 let92)))
  (let ((let165 (= let164 let163)))
  (let ((let166 (ff.add let73 let61 let107 let22)))
  (let ((let167 (ff.mul let61 let75)))
  (let ((let168 (= let167 let166)))
  (let ((let169 (ff.mul let92 let103)))
  (let ((let170 (= let169 let61)))
  (let ((let171 (ff.mul let103 let0)))
  (let ((let172 (ff.mul let48 let0)))
  (let ((let173 (ff.add let172 let139 let171 let22)))
  (let ((let174 (ff.add let172 let22)))
  (let ((let175 (ff.mul let174 let139)))
  (let ((let176 (= let175 let173)))
  (let ((let177 (ff.mul let139 let0)))
  (let ((let178 (ff.add let42 let48 let177)))
  (let ((let179 (ff.mul let48 let42)))
  (let ((let180 (= let179 let178)))
  (let ((let181 _24_alt))
  (let ((let182 (ff.add let110 let108 let181 let172)))
  (let ((let183 (ff.add let110 let108)))
  (let ((let184 (ff.mul let181 let183)))
  (let ((let185 (= let184 let182)))
  (let ((let186 (ff.mul let181 let0)))
  (let ((let187 _23_alt))
  (let ((let188 (ff.add let92 let187 let186)))
  (let ((let189 (ff.mul let187 let92)))
  (let ((let190 (= let189 let188)))
  (let ((let191 (ff.mul let187 let0)))
  (let ((let192 _22_alt))
  (let ((let193 (ff.add let152 let192 let191 let22)))
  (let ((let194 (ff.mul let192 let154)))
  (let ((let195 (= let194 let193)))
  (let ((let196 (ff.mul let192 let0)))
  (let ((let197 _21_alt))
  (let ((let198 (ff.add let162 let197 let196)))
  (let ((let199 (ff.mul let197 let162)))
  (let ((let200 (= let199 let198)))
  (let ((let201 (ff.mul let197 let0)))
  (let ((let202 (ff.add let66 let56 let201 let22)))
  (let ((let203 (ff.mul let67 let56)))
  (let ((let204 (= let203 let202)))
  (let ((let205 (ff.add let152 let66 let57 let106)))
  (let ((let206 (ff.mul let154 let67)))
  (let ((let207 (= let206 let205)))
  (let ((let208 (ff.mul let80 let0)))
  (let ((let209 (ff.add let208 let42)))
  (let ((let210 (ff.mul let209 let209)))
  (let ((let211 (= let210 let62)))
  (let ((let212 (ff.add let145 let128)))
  (let ((let213 (ff.mul let212 let212)))
  (let ((let214 (= let213 let151)))
  (let ((let215 (ff.add let208 let26)))
  (let ((let216 (ff.mul let215 let215)))
  (let ((let217 (= let216 let72)))
  (let ((let218 (ff.mul let183 let114)))
  (let ((let219 (= let218 let28)))
  (let ((let220 (ff.mul let145 let0)))
  (let ((let221 (ff.add let220 let22)))
  (let ((let222 (ff.mul let221 let162)))
  (let ((let223 (= let222 let108)))
  (let ((let224 (ff.mul let145 let127)))
  (let ((let225 (= let224 let110)))
  (let ((let226 (ff.mul let127 let127)))
  (let ((let227 (= let226 let127)))
  (let ((let228 (ff.mul let92 let92)))
  (let ((let229 (= let228 let92)))
  (let ((let230 (ff.mul let162 let162)))
  (let ((let231 (= let230 let162)))
  (let ((let232 (ff.mul let42 let42)))
  (let ((let233 (= let232 let42)))
  (let ((let234 (ff.mul let80 let80)))
  (let ((let235 (= let234 let80)))
  (let ((let236 (ff.mul let145 let145)))
  (let ((let237 (= let236 let145)))
  (let ((let238 (and let237 let235 let233 let231 let229 let227 let225 let223 let219 let217 let214 let211 let207 let204 let200 let195 let190 let185 let180 let176 let170 let168 let165 let160 let156 let148 let142 let136 let133 let131 let126 let123 let120 let116 let105 let102 let96 let88 let83 let77 let69 let64 let60 let51 let46 let41 let35 let30 let21 let13 let7)))
  (let ((let239 _80))
  (let ((let240 (ff.mul let239 let0)))
  (let ((let241 _79))
  (let ((let242 _47))
  (let ((let243 (ff.add let242 let241 let240)))
  (let ((let244 (ff.mul let241 let242)))
  (let ((let245 (= let244 let243)))
  (let ((let246 (ff.mul let241 let0)))
  (let ((let247 _78))
  (let ((let248 _55))
  (let ((let249 (ff.add let248 let247 let246)))
  (let ((let250 (ff.mul let247 let248)))
  (let ((let251 (= let250 let249)))
  (let ((let252 (ff.mul let247 let0)))
  (let ((let253 _76))
  (let ((let254 _75))
  (let ((let255 _64))
  (let ((let256 (ff.add let255 let254 let253 let252)))
  (let ((let257 (ff.add let254 let253)))
  (let ((let258 (ff.mul let257 let255)))
  (let ((let259 (= let258 let256)))
  (let ((let260 _62))
  (let ((let261 (ff.mul let260 let0)))
  (let ((let262 (ff.add let261 let22)))
  (let ((let263 _13))
  (let ((let264 (ff.mul let263 let0)))
  (let ((let265 (ff.add let264 let22)))
  (let ((let266 (ff.mul let265 let262)))
  (let ((let267 (= let266 let253)))
  (let ((let268 _70))
  (let ((let269 _69))
  (let ((let270 (ff.add let269 let268)))
  (let ((let271 (ff.mul let263 let270)))
  (let ((let272 (= let271 let254)))
  (let ((let273 _31))
  (let ((let274 _48))
  (let ((let275 (ff.mul let274 let0)))
  (let ((let276 (ff.add let275 let22)))
  (let ((let277 (ff.mul let276 let273)))
  (let ((let278 (= let277 let268)))
  (let ((let279 _2))
  (let ((let280 (ff.mul let279 let0)))
  (let ((let281 (ff.add let280 let22)))
  (let ((let282 (ff.mul let274 let281)))
  (let ((let283 (= let282 let269)))
  (let ((let284 (ff.mul let255 let0)))
  (let ((let285 _25))
  (let ((let286 (ff.add let285 let261 let284 let22)))
  (let ((let287 (ff.mul let285 let262)))
  (let ((let288 (= let287 let286)))
  (let ((let289 _60))
  (let ((let290 (ff.mul let289 let0)))
  (let ((let291 _59))
  (let ((let292 (ff.mul let291 let0)))
  (let ((let293 _20))
  (let ((let294 (ff.mul let293 let0)))
  (let ((let295 (ff.add let294 let292 let290 let22)))
  (let ((let296 (ff.mul let295 let295)))
  (let ((let297 (= let296 let260)))
  (let ((let298 _28))
  (let ((let299 _18))
  (let ((let300 (ff.mul let299 let298)))
  (let ((let301 (= let300 let289)))
  (let ((let302 _29))
  (let ((let303 (ff.mul let299 let0)))
  (let ((let304 (ff.add let303 let22)))
  (let ((let305 (ff.mul let304 let302)))
  (let ((let306 (= let305 let291)))
  (let ((let307 (ff.mul let248 let0)))
  (let ((let308 _54))
  (let ((let309 _14))
  (let ((let310 (ff.mul let309 let0)))
  (let ((let311 (ff.add let310 let308 let307 let22)))
  (let ((let312 (ff.add let310 let22)))
  (let ((let313 (ff.mul let308 let312)))
  (let ((let314 (= let313 let311)))
  (let ((let315 (ff.mul let308 let0)))
  (let ((let316 _53))
  (let ((let317 _1))
  (let ((let318 (ff.add let317 let316 let315)))
  (let ((let319 (ff.mul let316 let317)))
  (let ((let320 (= let319 let318)))
  (let ((let321 (ff.mul let316 let0)))
  (let ((let322 _52))
  (let ((let323 (ff.add let274 let322 let321)))
  (let ((let324 (ff.mul let322 let274)))
  (let ((let325 (= let324 let323)))
  (let ((let326 (ff.mul let322 let0)))
  (let ((let327 _50))
  (let ((let328 (ff.mul let327 let0)))
  (let ((let329 _4))
  (let ((let330 (ff.add let329 let328 let326 let22)))
  (let ((let331 (ff.add let328 let22)))
  (let ((let332 (ff.mul let331 let329)))
  (let ((let333 (= let332 let330)))
  (let ((let334 _41))
  (let ((let335 _40))
  (let ((let336 (ff.add let335 let334)))
  (let ((let337 _49))
  (let ((let338 (ff.mul let337 let336)))
  (let ((let339 (= let338 let327)))
  (let ((let340 _27))
  (let ((let341 (ff.mul let293 let340)))
  (let ((let342 (= let341 let337)))
  (let ((let343 (ff.mul let302 let0)))
  (let ((let344 _10))
  (let ((let345 (ff.mul let344 let0)))
  (let ((let346 _9))
  (let ((let347 (ff.mul let346 let0)))
  (let ((let348 (ff.add let347 let345 let343 let275 let106)))
  (let ((let349 (ff.add let343 let22)))
  (let ((let350 (ff.add let347 let345 let22)))
  (let ((let351 (ff.mul let350 let349)))
  (let ((let352 (= let351 let348)))
  (let ((let353 _46))
  (let ((let354 _35))
  (let ((let355 (ff.mul let354 let353)))
  (let ((let356 (= let355 let242)))
  (let ((let357 _45))
  (let ((let358 (ff.mul let357 let349)))
  (let ((let359 (= let358 let353)))
  (let ((let360 _44))
  (let ((let361 (ff.mul let360 let336)))
  (let ((let362 (= let361 let357)))
  (let ((let363 _5))
  (let ((let364 (ff.mul let363 let0)))
  (let ((let365 (ff.add let364 let22)))
  (let ((let366 (ff.mul let263 let365)))
  (let ((let367 (= let366 let360)))
  (let ((let368 (ff.mul let293 let354)))
  (let ((let369 (= let368 let334)))
  (let ((let370 (ff.add let294 let22)))
  (let ((let371 (ff.mul let370 let312)))
  (let ((let372 (= let371 let335)))
  (let ((let373 (ff.mul let354 let0)))
  (let ((let374 _34))
  (let ((let375 _26))
  (let ((let376 (ff.add let375 let374 let373)))
  (let ((let377 (ff.mul let374 let375)))
  (let ((let378 (= let377 let376)))
  (let ((let379 (ff.mul let374 let0)))
  (let ((let380 _33))
  (let ((let381 _0))
  (let ((let382 (ff.add let381 let380 let379)))
  (let ((let383 (ff.mul let380 let381)))
  (let ((let384 (= let383 let382)))
  (let ((let385 (ff.mul let380 let0)))
  (let ((let386 _32))
  (let ((let387 _16))
  (let ((let388 (ff.mul let387 let0)))
  (let ((let389 (ff.add let388 let386 let385 let22)))
  (let ((let390 (ff.add let388 let22)))
  (let ((let391 (ff.mul let386 let390)))
  (let ((let392 (= let391 let389)))
  (let ((let393 (ff.mul let386 let0)))
  (let ((let394 (ff.add let298 let273 let393)))
  (let ((let395 (ff.mul let273 let298)))
  (let ((let396 (= let395 let394)))
  (let ((let397 (ff.mul let273 let0)))
  (let ((let398 _3))
  (let ((let399 (ff.add let398 let329 let397)))
  (let ((let400 (ff.mul let398 let329)))
  (let ((let401 (= let400 let399)))
  (let ((let402 (ff.add let310 let298 let343 let22)))
  (let ((let403 (ff.mul let298 let312)))
  (let ((let404 (= let403 let402)))
  (let ((let405 (ff.mul let329 let340)))
  (let ((let406 (= let405 let298)))
  (let ((let407 (ff.mul let340 let0)))
  (let ((let408 (ff.mul let285 let0)))
  (let ((let409 (ff.add let408 let375 let407 let22)))
  (let ((let410 (ff.add let408 let22)))
  (let ((let411 (ff.mul let410 let375)))
  (let ((let412 (= let411 let409)))
  (let ((let413 (ff.mul let375 let0)))
  (let ((let414 (ff.add let279 let285 let413)))
  (let ((let415 (ff.mul let285 let279)))
  (let ((let416 (= let415 let414)))
  (let ((let417 _24))
  (let ((let418 (ff.add let346 let344 let417 let408)))
  (let ((let419 (ff.add let346 let344)))
  (let ((let420 (ff.mul let417 let419)))
  (let ((let421 (= let420 let418)))
  (let ((let422 (ff.mul let417 let0)))
  (let ((let423 _23))
  (let ((let424 (ff.add let329 let423 let422)))
  (let ((let425 (ff.mul let423 let329)))
  (let ((let426 (= let425 let424)))
  (let ((let427 (ff.mul let423 let0)))
  (let ((let428 _22))
  (let ((let429 (ff.add let388 let428 let427 let22)))
  (let ((let430 (ff.mul let428 let390)))
  (let ((let431 (= let430 let429)))
  (let ((let432 (ff.mul let428 let0)))
  (let ((let433 _21))
  (let ((let434 (ff.add let398 let433 let432)))
  (let ((let435 (ff.mul let433 let398)))
  (let ((let436 (= let435 let434)))
  (let ((let437 (ff.mul let433 let0)))
  (let ((let438 (ff.add let303 let293 let437 let22)))
  (let ((let439 (ff.mul let304 let293)))
  (let ((let440 (= let439 let438)))
  (let ((let441 (ff.add let388 let303 let294 let106)))
  (let ((let442 (ff.mul let390 let304)))
  (let ((let443 (= let442 let441)))
  (let ((let444 (ff.mul let317 let0)))
  (let ((let445 (ff.add let444 let279)))
  (let ((let446 (ff.mul let445 let445)))
  (let ((let447 (= let446 let299)))
  (let ((let448 (ff.add let381 let364)))
  (let ((let449 (ff.mul let448 let448)))
  (let ((let450 (= let449 let387)))
  (let ((let451 (ff.add let444 let263)))
  (let ((let452 (ff.mul let451 let451)))
  (let ((let453 (= let452 let309)))
  (let ((let454 (ff.mul let419 let350)))
  (let ((let455 (= let454 let265)))
  (let ((let456 (ff.mul let381 let0)))
  (let ((let457 (ff.add let456 let22)))
  (let ((let458 (ff.mul let457 let398)))
  (let ((let459 (= let458 let344)))
  (let ((let460 (ff.mul let381 let363)))
  (let ((let461 (= let460 let346)))
  (let ((let462 (ff.mul let363 let363)))
  (let ((let463 (= let462 let363)))
  (let ((let464 (ff.mul let329 let329)))
  (let ((let465 (= let464 let329)))
  (let ((let466 (ff.mul let398 let398)))
  (let ((let467 (= let466 let398)))
  (let ((let468 (ff.mul let279 let279)))
  (let ((let469 (= let468 let279)))
  (let ((let470 (ff.mul let317 let317)))
  (let ((let471 (= let470 let317)))
  (let ((let472 (ff.mul let381 let381)))
  (let ((let473 (= let472 let381)))
  (let ((let474 (and let473 let471 let469 let467 let465 let463 let461 let459 let455 let453 let450 let447 let443 let440 let436 let431 let426 let421 let416 let412 let406 let404 let401 let396 let392 let384 let378 let372 let369 let367 let362 let359 let356 let352 let342 let339 let333 let325 let320 let314 let306 let301 let297 let288 let283 let278 let272 let267 let259 let251 let245)))
  (let ((let475 out_alt))
  (let ((let476 out))
  (let ((let477 (= let476 let475)))
  (let ((let478 (not let477)))
  (let ((let479 (= let363 let127)))
  (let ((let480 (= let398 let162)))
  (let ((let481 (= let329 let92)))
  (let ((let482 (= let317 let80)))
  (let ((let483 (= let381 let145)))
  (let ((let484 (= let279 let42)))
  (let ((let485 (and let484 let483 let482 let481 let480 let479)))
  (let ((let486 (and let485 let478 let474 let238)))
  let486
)))))))))))))))))))))))))))))))))))))))))))))))))))))))))))))))))))))))))))))))))))))))))))))))))))))))))))))))))))))))))))))))))))))))))))))))))))))))))))))))))))))))))))))))))))))))))))))))))))))))))))))))))))))))))))))))))))))))))))))))))))))))))))))))))))))))))))))))))))))))))))))))))))))))))))))))))))))))))))))))))))))))))))))))))))))))))))))))))))))))))))))))))))))))))))))))))))))))))))))))))))))))))))))))))))))))))))))))))))))))))))))))))))))))))))))))))))))))))))))))))))))))
)
(check-sat)
